\ENCODING=ISO-8859-1
\Problem name: IloCplex

Minimize
 obj: x1 + 2 x2 + 3 x3 + 4 x4 + 4 x5 + 3 x6 + 2 x7 + 4 x8 + 2 x9 + 2 x10 + x11
Subject To
 c1: x1 + x2 + x3 + x4 <= 6
 c2: x5 + x6 + x7 + x8 <= 8
 c3: x9 + x10 + x11 + x12 <= 10
 c4: x1 + x5 + x12 >= 4
 c5: x2 + x6 + x9 >= 7
 c6: x3 + x7 + x10 >= 6
 c7: x4 + x8 + x11 >= 7
Bounds
      x1 >= 0
      x2 >= 0
      x3 >= 0
      x4 >= 0
      x5 >= 0
      x6 >= 0
      x7 >= 0
      x8 >= 0
      x9 >= 0
      x10 >= 0
      x11 >= 0
      x12 >= 0
Generals
 x1  x2  x3  x4  x5  x6  x7  x8  x9  x10  x11  x12 
End
